%%% Exp_DoseResponse conditions	%%%
%% Description: only half of the contents in pl-example08. 1/4 of the contents of pl-example01
%% Produces 1 plates.
%% 2020/Dec/04: It takes about 2s 643msec
%% 2021/Apr/22: It takes about 2s 387msec (with interconnected_plates = false)

%% Plate dimentions: (this is a 96-well plate)
num_rows = 8; %% height
num_cols = 12; %% width


horizontal_cell_lines = 1;
vertical_cell_lines = 1;

%allow_empty_wells = false;
size_empty_edge = 1;

% New and used!
concentrations_on_different_rows = true;
concentrations_on_different_columns = true;

% New and unused! (Restriction: replicates_on_different_plates /\ replicates_on_same_plate == false)
replicates_on_different_plates = true;
replicates_on_same_plate = false;


%%% Compounds %%%
%compounds = 5; %% number of drugs/compounds
compound_concentrations	 = [8 | i in 1..5]; 

compound_replicates	 = [1 | i in 1..5];

compound_names = ["comp\(i)" | i in 1..5];


compound_concentration_names = [|"a0.3", "a1", "a3", "a5", "a10", "a15", "a30", "a100"
|"b0.3", "b1", "b3", "b5", "b10", "b15", "b30", "b100"
|"c0.3", "c1", "c3", "c5", "c10", "c15", "c30", "c100"
|"d0.3", "d1", "d3", "d5", "d10", "d15", "d30", "d100"
|"e0.3", "e1", "e3", "e5", "e10", "e15", "e30", "e100"|];


%%% Controls %%%
%num_controls = 4;
control_replicates = [8,4,4,4];
control_concentrations = [1 | i in 1..num_controls];
control_names = ["pos","neg","blank","dmso"];

control_concentration_names =  array2d(1..4, 1..max(control_concentrations),["comp\(floor(i/max(control_concentrations)))-conc\((i mod max(control_concentrations)) + 1)" | i in 1..4*max(control_concentrations)]);  
  
    
